12      4       
15      10      11      13      
0       0       0       0       0       3       2       3       4       
2       0       1       0       5       1       5       
6       9       0       0       6       2       6       11      
9       0       6       10      7       1       10      
1       0       7       2       0       2       7       8       
6       10      0       0       0       2       7       8       
9       3       0       3       0       2       9       10      
10      10      2       0       8       2       9       10      
6       0       4       0       0       1       12      
2       0       0       1       3       1       12      
5       9       0       2       0       1       12      
0       0       0       0       0       0       